#
! UKS wB97X-D3 RIJCOSX def2-SVP def2/J Normalprint SlowConv TightSCF TightOpt Numfreq Grid4 Nofinalgrid

%pal nprocs 12
end

%basis NewGTO 27 "def2-TZVP(-f)" end
	   NewGTO 15 "def2-TZVP(-f)" end
	   NewGTO 7 "def2-TZVP(-f)" end
	   NewGTO 5 "def2-TZVP(-f)" end
       NewAuxGTO 27 "def2/J" end
	   NewAuxGTO 15 "def2/J" end
	   NewAuxGTO 7 "def2/J" end
	   NewAuxGTO 5 "def2/J" end
      end

%SCF MaxIter 50000
     TolE 1e-7
     TolErr 1e-6
    end

%FREQ RESTART TRUE
CENTRALDIFF TRUE
INCREMENT 0.01
END

* xyz 0 1
C1         -2.5865900000      1.1995700000     -0.2120100000
C2         -3.9170600000      1.3021200000     -0.0636100000
C3         -4.7204700000      0.0730400000      0.2503100000
C4         -3.9730200000     -1.2061500000      0.5304500000
C5         -2.6427100000     -1.2721000000      0.3160700000
N6         -1.9264800000     -0.0563200000     -0.0728800000
H7         -4.4196500000      2.2577300000     -0.2013100000
H8         -4.5151200000     -2.0622800000      0.9181600000
C9         -1.7540400000      2.3836800000     -0.5842800000
H10        -1.5946500000      2.2279900000     -1.6625300000
H11        -2.2708800000      3.3602600000     -0.5942000000
C12        -1.8451700000     -2.5552200000      0.6899500000
H13        -2.3395200000     -3.5112100000      0.4418700000
H14        -1.7435000000     -2.6283400000      1.7856000000
P15        -0.0602400000      2.3190800000      0.1628600000
P16        -0.2089500000     -2.3231900000     -0.0763800000
C17         0.9374100000     -3.5133500000      0.7402300000
C18         0.2012400000     -4.7344800000      1.3149500000
H19         1.6236100000     -3.8323300000     -0.0706000000
C20         1.8544500000     -2.8961800000      1.7825000000
C21        -0.7002900000     -2.9141500000     -1.7882600000
C22        -0.5226900000     -4.4344200000     -1.9658600000
C23        -2.1246200000     -2.5586800000     -2.2470400000
H24         0.0589200000     -2.5027100000     -2.4687200000
C25         1.2002000000      3.3483200000     -0.7250100000
H26         1.3077700000      4.3334500000     -0.2496300000
C27         2.5563200000      2.6449200000     -0.7609700000
C28         0.7178900000      3.7210800000     -2.1214200000
C29        -0.2125300000      3.3521000000      1.6995800000
C30         1.1461400000      3.7102700000      2.3717700000
C31        -0.9834900000      4.6479300000      1.5126400000
H32        -0.8027600000      2.7155400000      2.3950800000
O33        -0.7934200000      0.4895100000     -2.9750400000
O34         1.4740200000     -0.4146100000     -2.6643400000
C35         1.3129300000     -0.1032700000     -4.0225100000
C36        -0.2341400000      0.2591000000     -4.2389300000
C37         1.7928600000     -1.3307100000     -4.8262600000
C38         2.2924000000      1.0483400000     -4.3639300000
C39        -0.4950500000      1.5125100000     -5.1024600000
C40        -1.0507900000     -0.8757800000     -4.8864900000
B41         0.2589500000      0.1073700000     -2.0580400000
C42        -6.2111100000      0.1772200000      0.5581800000
H43        -0.3769500000     -4.4477200000      2.2178700000
H44         0.9271400000     -5.5229900000      1.5938300000
H45        -0.5095700000     -5.1808300000      0.6013600000
H46         1.2952500000     -2.5582300000      2.6746300000
H47         2.4180400000     -2.0512900000      1.3330600000
H48         2.5984800000     -3.6680300000      2.0856100000
H49        -1.2754500000     -5.0158800000     -1.4004100000
H50         0.4989700000     -4.7719200000     -1.6961200000
H51        -0.6393700000     -4.6965500000     -3.0383600000
H52        -2.2821000000     -1.4669800000     -2.2582000000
H53        -2.8896600000     -3.0464700000     -1.6129800000
H54        -2.3257900000     -2.9627700000     -3.2559400000
H55         0.9483000000      4.1307000000      3.3773500000
H56         1.7010000000      4.4794000000      1.8054000000
H57         1.8775000000      2.9089400000      2.5203600000
H58        -1.0677200000      5.1491300000      2.4983200000
H59        -2.0164000000      4.4615000000      1.1776000000
H60        -0.4580000000      5.3141100000      0.8022100000
H61         2.8866400000      2.3850800000      0.2640900000
H62         3.3135700000      3.3112800000     -1.2245500000
H63         2.5083500000      1.7163200000     -1.3637100000
H64        -0.2201700000      4.3146200000     -2.0657800000
H65         0.5013000000      2.8159500000     -2.6866700000
H66         1.4775200000      4.3386400000     -2.6495500000
H67        -1.5876600000      1.7218900000     -5.1357400000
H68        -0.1212000000      1.3668600000     -6.1342800000
H69        -0.0246400000      2.4233000000     -4.6979300000
H70        -2.1373700000     -0.6408800000     -4.8402300000
H71        -0.8908600000     -1.8267300000     -4.3732200000
H72        -0.7619500000     -1.0237700000     -5.9454900000
H73         2.0954800000      1.9664300000     -3.7943200000
H74         2.2505300000      1.2908100000     -5.4464200000
H75         3.3354000000      0.7537300000     -4.1172600000
H76         1.2404700000     -2.2488500000     -4.5445800000
H77         2.8587600000     -1.5457000000     -4.5939200000
H78         1.6902000000     -1.1543200000     -5.9157300000
H79        -6.7385800000     -0.6462300000      0.0340600000
H80        -6.6262600000      1.1413800000      0.1926400000
H81        -6.3965500000      0.0931000000      1.6493000000
H82         1.5913000000      0.0000000000     -0.0002200000 NewGTO "def2-TZVP(-f)" end NewAuxGTO "def2/J" end
Co83        0.0000000000      0.0000000000      0.0000000000
C84         0.0000000000      0.0000000000      2.0650500000 NewGTO "def2-TZVP(-f)" end NewAuxGTO "def2/J" end
C85        -1.1919100000     -0.0147300000      2.7853100000
C86         1.1790700000     -0.0007800000      2.8393400000
C87        -1.2701100000     -0.2494500000      4.1303700000
C88         1.1146000000     -0.0987200000      4.2497200000
C89        -0.1186600000     -0.3013300000      4.8792800000
H90         2.1383400000      0.0685800000      2.3571500000
H93        -2.1204700000      0.1157200000      2.3689000000                             
H91         2.0061000000     -0.0616400000      4.8591500000
O       -0.1002450000     -0.5217520000      6.2134580000
C       -1.2950540000     -0.8883650000      6.8502100000
H       -1.0285570000     -1.1611610000      7.8785870000
H       -1.7587680000     -1.7661380000      6.3659910000
H       -2.0314800000     -0.0691970000      6.8681530000
B       -2.7231910000     -0.3752300000      4.6981040000
O       -3.7984520000     -0.3323610000      3.8473010000
O       -3.0976730000     -0.5247620000      6.0037510000
C       -4.9844920000     -0.3642870000      4.6141800000
C       -4.5122350000     -0.6650370000      6.0510370000
H       -5.6632430000     -1.1320970000      4.2147390000
H       -5.5004070000      0.6061370000      4.5272130000
H       -4.9311090000      0.0371020000      6.7850530000
H       -4.7750760000     -1.6825340000      6.3799520000
*
